p cnf 1075
-15 -337
-16 -340
-17 -343
-18 -346
-19 -349
-20 -352
-21 -355
-22 -358
-23 -361
-24 -364
-25 -367
-26 -370
-27 -373
-28 -376
-29 377
-30 378
-31 379
-32 380
-33 381
-34 382
-35 383
-36 384
-37 385
-38 386
-39 -16
-39 -17
16 17 39
-40 -18
-40 -19
18 19 40
-41 -20
-41 -21
20 21 41
-42 -22
-42 -23
22 23 42
-43 -24
-43 -25
24 25 43
-44 -26
-44 -27
26 27 44
-45 -28
-45 -29
28 29 45
-46 -30
-46 -31
30 31 46
-47 -32
-47 -33
32 33 47
-48 -34
-48 -35
34 35 48
-49 -36
-49 -37
36 37 49
-50 39
-50 40
-39 -40 50
-51 41
-51 42
-41 -42 51
-52 43
-52 44
-43 -44 52
-53 45
-53 46
-45 -46 53
-54 47
-54 48
-47 -48 54
-55 -38
-55 49
38 -49 55
-56 50
-56 51
-50 -51 56
-57 52
-57 53
-52 -53 57
-58 54
-58 55
-54 -55 58
-59 56
-59 57
-56 -57 59
-60 58
-60 59
-58 -59 60
-61 -15
-61 16
15 -16 61
-62 15
-62 -16
-15 16 62
-63 -61
-63 -62
61 62 63
-64 15
-64 16
-15 -16 64
-65 -15
-65 -63
15 63 65
-66 15
-66 63
-15 -63 66
-67 -65
-67 -66
65 66 67
-68 15
-68 -63
-15 63 68
-69 -64
-69 -68
64 68 69
-70 -16
-70 17
16 -17 70
-71 16
-71 -17
-16 17 71
-72 -70
-72 -71
70 71 72
-73 16
-73 17
-16 -17 73
-74 69
-74 -72
-69 72 74
-75 -69
-75 72
69 -72 75
-76 -74
-76 -75
74 75 76
-77 -69
-77 -72
69 72 77
-78 -73
-78 -77
73 77 78
-79 -17
-79 18
17 -18 79
-80 17
-80 -18
-17 18 80
-81 -79
-81 -80
79 80 81
-82 17
-82 18
-17 -18 82
-83 78
-83 -81
-78 81 83
-84 -78
-84 81
78 -81 84
-85 -83
-85 -84
83 84 85
-86 -78
-86 -81
78 81 86
-87 -82
-87 -86
82 86 87
-88 -18
-88 19
18 -19 88
-89 18
-89 -19
-18 19 89
-90 -88
-90 -89
88 89 90
-91 18
-91 19
-18 -19 91
-92 87
-92 -90
-87 90 92
-93 -87
-93 90
87 -90 93
-94 -92
-94 -93
92 93 94
-95 -87
-95 -90
87 90 95
-96 -91
-96 -95
91 95 96
-97 -19
-97 20
19 -20 97
-98 19
-98 -20
-19 20 98
-99 -97
-99 -98
97 98 99
-100 19
-100 20
-19 -20 100
-101 96
-101 -99
-96 99 101
-102 -96
-102 99
96 -99 102
-103 -101
-103 -102
101 102 103
-104 -96
-104 -99
96 99 104
-105 -100
-105 -104
100 104 105
-106 -20
-106 21
20 -21 106
-107 20
-107 -21
-20 21 107
-108 -106
-108 -107
106 107 108
-109 20
-109 21
-20 -21 109
-110 105
-110 -108
-105 108 110
-111 -105
-111 108
105 -108 111
-112 -110
-112 -111
110 111 112
-113 -105
-113 -108
105 108 113
-114 -109
-114 -113
109 113 114
-115 -21
-115 22
21 -22 115
-116 21
-116 -22
-21 22 116
-117 -115
-117 -116
115 116 117
-118 21
-118 22
-21 -22 118
-119 114
-119 -117
-114 117 119
-120 -114
-120 117
114 -117 120
-121 -119
-121 -120
119 120 121
-122 -114
-122 -117
114 117 122
-123 -118
-123 -122
118 122 123
-124 -22
-124 23
22 -23 124
-125 22
-125 -23
-22 23 125
-126 -124
-126 -125
124 125 126
-127 22
-127 23
-22 -23 127
-128 123
-128 -126
-123 126 128
-129 -123
-129 126
123 -126 129
-130 -128
-130 -129
128 129 130
-131 -123
-131 -126
123 126 131
-132 -127
-132 -131
127 131 132
-133 -23
-133 24
23 -24 133
-134 23
-134 -24
-23 24 134
-135 -133
-135 -134
133 134 135
-136 23
-136 24
-23 -24 136
-137 132
-137 -135
-132 135 137
-138 -132
-138 135
132 -135 138
-139 -137
-139 -138
137 138 139
-140 -132
-140 -135
132 135 140
-141 -136
-141 -140
136 140 141
-142 -24
-142 25
24 -25 142
-143 24
-143 -25
-24 25 143
-144 -142
-144 -143
142 143 144
-145 24
-145 25
-24 -25 145
-146 141
-146 -144
-141 144 146
-147 -141
-147 144
141 -144 147
-148 -146
-148 -147
146 147 148
-149 -141
-149 -144
141 144 149
-150 -145
-150 -149
145 149 150
-151 -25
-151 26
25 -26 151
-152 25
-152 -26
-25 26 152
-153 -151
-153 -152
151 152 153
-154 25
-154 26
-25 -26 154
-155 150
-155 -153
-150 153 155
-156 -150
-156 153
150 -153 156
-157 -155
-157 -156
155 156 157
-158 -150
-158 -153
150 153 158
-159 -154
-159 -158
154 158 159
-160 -26
-160 27
26 -27 160
-161 26
-161 -27
-26 27 161
-162 -160
-162 -161
160 161 162
-163 26
-163 27
-26 -27 163
-164 159
-164 -162
-159 162 164
-165 -159
-165 162
159 -162 165
-166 -164
-166 -165
164 165 166
-167 -159
-167 -162
159 162 167
-168 -163
-168 -167
163 167 168
-169 -27
-169 28
27 -28 169
-170 27
-170 -28
-27 28 170
-171 -169
-171 -170
169 170 171
-172 27
-172 28
-27 -28 172
-173 168
-173 -171
-168 171 173
-174 -168
-174 171
168 -171 174
-175 -173
-175 -174
173 174 175
-176 -168
-176 -171
168 171 176
-177 -172
-177 -176
172 176 177
-178 -28
-178 29
28 -29 178
-179 28
-179 -29
-28 29 179
-180 -178
-180 -179
178 179 180
-181 28
-181 29
-28 -29 181
-182 177
-182 -180
-177 180 182
-183 -177
-183 180
177 -180 183
-184 -182
-184 -183
182 183 184
-185 -177
-185 -180
177 180 185
-186 -181
-186 -185
181 185 186
-187 -29
-187 30
29 -30 187
-188 29
-188 -30
-29 30 188
-189 -187
-189 -188
187 188 189
-190 29
-190 30
-29 -30 190
-191 186
-191 -189
-186 189 191
-192 -186
-192 189
186 -189 192
-193 -191
-193 -192
191 192 193
-194 -186
-194 -189
186 189 194
-195 -190
-195 -194
190 194 195
-196 -30
-196 31
30 -31 196
-197 30
-197 -31
-30 31 197
-198 -196
-198 -197
196 197 198
-199 30
-199 31
-30 -31 199
-200 195
-200 -198
-195 198 200
-201 -195
-201 198
195 -198 201
-202 -200
-202 -201
200 201 202
-203 -195
-203 -198
195 198 203
-204 -199
-204 -203
199 203 204
-205 -31
-205 32
31 -32 205
-206 31
-206 -32
-31 32 206
-207 -205
-207 -206
205 206 207
-208 31
-208 32
-31 -32 208
-209 204
-209 -207
-204 207 209
-210 -204
-210 207
204 -207 210
-211 -209
-211 -210
209 210 211
-212 -204
-212 -207
204 207 212
-213 -208
-213 -212
208 212 213
-214 -32
-214 33
32 -33 214
-215 32
-215 -33
-32 33 215
-216 -214
-216 -215
214 215 216
-217 32
-217 33
-32 -33 217
-218 213
-218 -216
-213 216 218
-219 -213
-219 216
213 -216 219
-220 -218
-220 -219
218 219 220
-221 -213
-221 -216
213 216 221
-222 -217
-222 -221
217 221 222
-223 -33
-223 34
33 -34 223
-224 33
-224 -34
-33 34 224
-225 -223
-225 -224
223 224 225
-226 33
-226 34
-33 -34 226
-227 222
-227 -225
-222 225 227
-228 -222
-228 225
222 -225 228
-229 -227
-229 -228
227 228 229
-230 -222
-230 -225
222 225 230
-231 -226
-231 -230
226 230 231
-232 -34
-232 35
34 -35 232
-233 34
-233 -35
-34 35 233
-234 -232
-234 -233
232 233 234
-235 34
-235 35
-34 -35 235
-236 231
-236 -234
-231 234 236
-237 -231
-237 234
231 -234 237
-238 -236
-238 -237
236 237 238
-239 -231
-239 -234
231 234 239
-240 -235
-240 -239
235 239 240
-241 -35
-241 36
35 -36 241
-242 35
-242 -36
-35 36 242
-243 -241
-243 -242
241 242 243
-244 35
-244 36
-35 -36 244
-245 240
-245 -243
-240 243 245
-246 -240
-246 243
240 -243 246
-247 -245
-247 -246
245 246 247
-248 -240
-248 -243
240 243 248
-249 -244
-249 -248
244 248 249
-250 -36
-250 37
36 -37 250
-251 36
-251 -37
-36 37 251
-252 -250
-252 -251
250 251 252
-253 36
-253 37
-36 -37 253
-254 249
-254 -252
-249 252 254
-255 -249
-255 252
249 -252 255
-256 -254
-256 -255
254 255 256
-257 -249
-257 -252
249 252 257
-258 -253
-258 -257
253 257 258
-259 -37
-259 38
37 -38 259
-260 37
-260 -38
-37 38 260
-261 -259
-261 -260
259 260 261
-262 37
-262 38
-37 -38 262
-263 258
-263 -261
-258 261 263
-264 -258
-264 261
258 -261 264
-265 -263
-265 -264
263 264 265
-266 -258
-266 -261
258 261 266
-267 -262
-267 -266
262 266 267
-268 15
-268 -67
-15 67 268
-269 -15
-269 17
15 -17 269
-270 -268
-270 -269
268 269 270
-271 15
-271 -76
-15 76 271
-272 -15
-272 18
15 -18 272
-273 -271
-273 -272
271 272 273
-274 15
-274 -85
-15 85 274
-275 -15
-275 19
15 -19 275
-276 -274
-276 -275
274 275 276
-277 15
-277 -94
-15 94 277
-278 -15
-278 20
15 -20 278
-279 -277
-279 -278
277 278 279
-280 15
-280 -103
-15 103 280
-281 -15
-281 21
15 -21 281
-282 -280
-282 -281
280 281 282
-283 15
-283 -112
-15 112 283
-284 -15
-284 22
15 -22 284
-285 -283
-285 -284
283 284 285
-286 15
-286 -121
-15 121 286
-287 -15
-287 23
15 -23 287
-288 -286
-288 -287
286 287 288
-289 15
-289 -130
-15 130 289
-290 -15
-290 24
15 -24 290
-291 -289
-291 -290
289 290 291
-292 15
-292 -139
-15 139 292
-293 -15
-293 25
15 -25 293
-294 -292
-294 -293
292 293 294
-295 15
-295 -148
-15 148 295
-296 -15
-296 26
15 -26 296
-297 -295
-297 -296
295 296 297
-298 15
-298 -157
-15 157 298
-299 -15
-299 27
15 -27 299
-300 -298
-300 -299
298 299 300
-301 15
-301 -166
-15 166 301
-302 -15
-302 28
15 -28 302
-303 -301
-303 -302
301 302 303
-304 15
-304 -175
-15 175 304
-305 -15
-305 29
15 -29 305
-306 -304
-306 -305
304 305 306
-307 15
-307 -184
-15 184 307
-308 -15
-308 30
15 -30 308
-309 -307
-309 -308
307 308 309
-310 15
-310 -193
-15 193 310
-311 -15
-311 31
15 -31 311
-312 -310
-312 -311
310 311 312
-313 15
-313 -202
-15 202 313
-314 -15
-314 32
15 -32 314
-315 -313
-315 -314
313 314 315
-316 15
-316 -211
-15 211 316
-317 -15
-317 33
15 -33 317
-318 -316
-318 -317
316 317 318
-319 15
-319 -220
-15 220 319
-320 -15
-320 34
15 -34 320
-321 -319
-321 -320
319 320 321
-322 15
-322 -229
-15 229 322
-323 -15
-323 35
15 -35 323
-324 -322
-324 -323
322 323 324
-325 15
-325 -238
-15 238 325
-326 -15
-326 36
15 -36 326
-327 -325
-327 -326
325 326 327
-328 15
-328 -247
-15 247 328
-329 -15
-329 37
15 -37 329
-330 -328
-330 -329
328 329 330
-331 15
-331 -256
-15 256 331
-332 -15
-332 38
15 -38 332
-333 -331
-333 -332
331 332 333
-334 15
-334 -265
-15 265 334
-335 1
-335 60
-1 -60 335
-336 -60
-336 61
60 -61 336
-337 -335
-337 -336
335 336 337
-338 2
-338 60
-2 -60 338
-339 -60
-339 -270
60 270 339
-340 -338
-340 -339
338 339 340
-341 3
-341 60
-3 -60 341
-342 -60
-342 -273
60 273 342
-343 -341
-343 -342
341 342 343
-344 4
-344 60
-4 -60 344
-345 -60
-345 -276
60 276 345
-346 -344
-346 -345
344 345 346
-347 5
-347 60
-5 -60 347
-348 -60
-348 -279
60 279 348
-349 -347
-349 -348
347 348 349
-350 6
-350 60
-6 -60 350
-351 -60
-351 -282
60 282 351
-352 -350
-352 -351
350 351 352
-353 7
-353 60
-7 -60 353
-354 -60
-354 -285
60 285 354
-355 -353
-355 -354
353 354 355
-356 8
-356 60
-8 -60 356
-357 -60
-357 -288
60 288 357
-358 -356
-358 -357
356 357 358
-359 9
-359 60
-9 -60 359
-360 -60
-360 -291
60 291 360
-361 -359
-361 -360
359 360 361
-362 10
-362 60
-10 -60 362
-363 -60
-363 -294
60 294 363
-364 -362
-364 -363
362 363 364
-365 11
-365 60
-11 -60 365
-366 -60
-366 -297
60 297 366
-367 -365
-367 -366
365 366 367
-368 12
-368 60
-12 -60 368
-369 -60
-369 -300
60 300 369
-370 -368
-370 -369
368 369 370
-371 13
-371 60
-13 -60 371
-372 -60
-372 -303
60 303 372
-373 -371
-373 -372
371 372 373
-374 14
-374 60
-14 -60 374
-375 -60
-375 -306
60 306 375
-376 -374
-376 -375
374 375 376
-377 -60
-377 -309
60 309 377
-378 -60
-378 -312
60 312 378
-379 -60
-379 -315
60 315 379
-380 -60
-380 -318
60 318 380
-381 -60
-381 -321
60 321 381
-382 -60
-382 -324
60 324 382
-383 -60
-383 -327
60 327 383
-384 -60
-384 -330
60 330 384
-385 -60
-385 -333
60 333 385
-386 -60
-386 334
60 -334 386
-387 -38
-387 267
38 -267 387
-388 15
-388 -387
-15 387 388
388
